NAME : portcgen-23-17
COMMENT : portcgen N=23, seed=17
TYPE : TSP
DIMENSION : 23
EDGE_WEIGHT_TYPE : EUC_2D
NODE_COORD_SECTION
1 450543 -224037
2 -125052 -121365
3 351867 216361
4 250799 -94104
5 303605 166935
6 -65657 444398
7 472903 195930
8 -269823 381204
9 148414 188069
10 925 -257796
11 -145862 199084
12 245731 242242
13 -112504 89625
14 -61792 -215905
15 -319610 -275821
16 81250 -359708
17 -2035 89201
18 -342662 -75681
19 -156192 10093
20 -471990 118610
21 338775 231050
22 -420796 -46277
23 -117765 -69299
